(set-option :produce-models true)
(set-logic QF_LRA)
(set-info :notes | Strip-packing problem.|)
(declare-fun x0 () Real)
(declare-fun y0 () Real)
(declare-fun x1 () Real)
(declare-fun y1 () Real)
(declare-fun x2 () Real)
(declare-fun y2 () Real)
(declare-fun x3 () Real)
(declare-fun y3 () Real)
(declare-fun x4 () Real)
(declare-fun y4 () Real)
(declare-fun x5 () Real)
(declare-fun y5 () Real)
(declare-fun x6 () Real)
(declare-fun y6 () Real)
(declare-fun x7 () Real)
(declare-fun y7 () Real)
(declare-fun x8 () Real)
(declare-fun y8 () Real)
(declare-fun x9 () Real)
(declare-fun y9 () Real)
(declare-fun x10 () Real)
(declare-fun y10 () Real)
(declare-fun x11 () Real)
(declare-fun y11 () Real)
(declare-fun z () Real)
(declare-fun c () Real)
(assert (and (= c z) (and (>= x0 0) 
(and (>= y0 0) 
(and (>= x1 0) 
(and (>= y1 0) 
(and (>= x2 0) 
(and (>= y2 0) 
(and (>= x3 0) 
(and (>= y3 0) 
(and (>= x4 0) 
(and (>= y4 0) 
(and (>= x5 0) 
(and (>= y5 0) 
(and (>= x6 0) 
(and (>= y6 0) 
(and (>= x7 0) 
(and (>= y7 0) 
(and (>= x8 0) 
(and (>= y8 0) 
(and (>= x9 0) 
(and (>= y9 0) 
(and (>= x10 0) 
(and (>= y10 0) 
(and (>= x11 0) 
(and (>= y11 0) 
(and (>= z 0) 
(and (>= c 0) 
(and (<= (+ x0 0.0072947714) z) 
(and (<= 0.9878964585 y0) 
(and (<= y0 1.73205080757) 
(and (<= x0 (- 2.2209945476 0.0072947714)) 
(and (>= x0 0) 
(and (<= (+ x1 0.4270014863) z) 
(and (<= 0.9212678774 y1) 
(and (<= y1 1.73205080757) 
(and (<= x1 (- 2.2209945476 0.4270014863)) 
(and (>= x1 0) 
(and (<= (+ x2 0.1851341769) z) 
(and (<= 0.8166652303 y2) 
(and (<= y2 1.73205080757) 
(and (<= x2 (- 2.2209945476 0.1851341769)) 
(and (>= x2 0) 
(and (<= (+ x3 0.0429529973) z) 
(and (<= 0.8035968909 y3) 
(and (<= y3 1.73205080757) 
(and (<= x3 (- 2.2209945476 0.0429529973)) 
(and (>= x3 0) 
(and (<= (+ x4 0.6669333484) z) 
(and (<= 0.6276252804 y4) 
(and (<= y4 1.73205080757) 
(and (<= x4 (- 2.2209945476 0.6669333484)) 
(and (>= x4 0) 
(and (<= (+ x5 0.0903185514) z) 
(and (<= 0.508830504 y5) 
(and (<= y5 1.73205080757) 
(and (<= x5 (- 2.2209945476 0.0903185514)) 
(and (>= x5 0) 
(and (<= (+ x6 0.0255689709) z) 
(and (<= 0.3572519162 y6) 
(and (<= y6 1.73205080757) 
(and (<= x6 (- 2.2209945476 0.0255689709)) 
(and (>= x6 0) 
(and (<= (+ x7 0.2598307129) z) 
(and (<= 0.3424717975 y7) 
(and (<= y7 1.73205080757) 
(and (<= x7 (- 2.2209945476 0.2598307129)) 
(and (>= x7 0) 
(and (<= (+ x8 0.35150278) z) 
(and (<= 0.298630459 y8) 
(and (<= y8 1.73205080757) 
(and (<= x8 (- 2.2209945476 0.35150278)) 
(and (>= x8 0) 
(and (<= (+ x9 0.1614205582) z) 
(and (<= 0.2251849441 y9) 
(and (<= y9 1.73205080757) 
(and (<= x9 (- 2.2209945476 0.1614205582)) 
(and (>= x9 0) 
(and (<= (+ x10 0.9346307646) z) 
(and (<= 0.17574257 y10) 
(and (<= y10 1.73205080757) 
(and (<= x10 (- 2.2209945476 0.9346307646)) 
(and (>= x10 0) 
(and (<= (+ x11 0.9286627864) z) 
(and (<= 0.0821876329 y11) 
(and (<= y11 1.73205080757) 
(and (<= x11 (- 2.2209945476 0.9286627864)) 
(and (>= x11 0) 
(and (<= c 2.2209945476) 
(and (or (<= (+ x0 0.0072947714) x1) (or (<= (+ x1 0.4270014863) x0) (or (>= (- y0 0.9878964585) y1) (or (>= (- y1 0.9212678774) y0))))) 
(and (or (<= (+ x0 0.0072947714) x2) (or (<= (+ x2 0.1851341769) x0) (or (>= (- y0 0.9878964585) y2) (or (>= (- y2 0.8166652303) y0))))) 
(and (or (<= (+ x0 0.0072947714) x3) (or (<= (+ x3 0.0429529973) x0) (or (>= (- y0 0.9878964585) y3) (or (>= (- y3 0.8035968909) y0))))) 
(and (or (<= (+ x0 0.0072947714) x4) (or (<= (+ x4 0.6669333484) x0) (or (>= (- y0 0.9878964585) y4) (or (>= (- y4 0.6276252804) y0))))) 
(and (or (<= (+ x0 0.0072947714) x5) (or (<= (+ x5 0.0903185514) x0) (or (>= (- y0 0.9878964585) y5) (or (>= (- y5 0.508830504) y0))))) 
(and (or (<= (+ x0 0.0072947714) x6) (or (<= (+ x6 0.0255689709) x0) (or (>= (- y0 0.9878964585) y6) (or (>= (- y6 0.3572519162) y0))))) 
(and (or (<= (+ x0 0.0072947714) x7) (or (<= (+ x7 0.2598307129) x0) (or (>= (- y0 0.9878964585) y7) (or (>= (- y7 0.3424717975) y0))))) 
(and (or (<= (+ x0 0.0072947714) x8) (or (<= (+ x8 0.35150278) x0) (or (>= (- y0 0.9878964585) y8) (or (>= (- y8 0.298630459) y0))))) 
(and (or (<= (+ x0 0.0072947714) x9) (or (<= (+ x9 0.1614205582) x0) (or (>= (- y0 0.9878964585) y9) (or (>= (- y9 0.2251849441) y0))))) 
(and (or (<= (+ x0 0.0072947714) x10) (or (<= (+ x10 0.9346307646) x0) (or (>= (- y0 0.9878964585) y10) (or (>= (- y10 0.17574257) y0))))) 
(and (or (<= (+ x0 0.0072947714) x11) (or (<= (+ x11 0.9286627864) x0) (or (>= (- y0 0.9878964585) y11) (or (>= (- y11 0.0821876329) y0))))) 
(and (or (<= (+ x1 0.4270014863) x2) (or (<= (+ x2 0.1851341769) x1) (or (>= (- y1 0.9212678774) y2) (or (>= (- y2 0.8166652303) y1))))) 
(and (or (<= (+ x1 0.4270014863) x3) (or (<= (+ x3 0.0429529973) x1) (or (>= (- y1 0.9212678774) y3) (or (>= (- y3 0.8035968909) y1))))) 
(and (or (<= (+ x1 0.4270014863) x4) (or (<= (+ x4 0.6669333484) x1) (or (>= (- y1 0.9212678774) y4) (or (>= (- y4 0.6276252804) y1))))) 
(and (or (<= (+ x1 0.4270014863) x5) (or (<= (+ x5 0.0903185514) x1) (or (>= (- y1 0.9212678774) y5) (or (>= (- y5 0.508830504) y1))))) 
(and (or (<= (+ x1 0.4270014863) x6) (or (<= (+ x6 0.0255689709) x1) (or (>= (- y1 0.9212678774) y6) (or (>= (- y6 0.3572519162) y1))))) 
(and (or (<= (+ x1 0.4270014863) x7) (or (<= (+ x7 0.2598307129) x1) (or (>= (- y1 0.9212678774) y7) (or (>= (- y7 0.3424717975) y1))))) 
(and (or (<= (+ x1 0.4270014863) x8) (or (<= (+ x8 0.35150278) x1) (or (>= (- y1 0.9212678774) y8) (or (>= (- y8 0.298630459) y1))))) 
(and (or (<= (+ x1 0.4270014863) x9) (or (<= (+ x9 0.1614205582) x1) (or (>= (- y1 0.9212678774) y9) (or (>= (- y9 0.2251849441) y1))))) 
(and (or (<= (+ x1 0.4270014863) x10) (or (<= (+ x10 0.9346307646) x1) (or (>= (- y1 0.9212678774) y10) (or (>= (- y10 0.17574257) y1))))) 
(and (or (<= (+ x1 0.4270014863) x11) (or (<= (+ x11 0.9286627864) x1) (or (>= (- y1 0.9212678774) y11) (or (>= (- y11 0.0821876329) y1))))) 
(and (or (<= (+ x2 0.1851341769) x3) (or (<= (+ x3 0.0429529973) x2) (or (>= (- y2 0.8166652303) y3) (or (>= (- y3 0.8035968909) y2))))) 
(and (or (<= (+ x2 0.1851341769) x4) (or (<= (+ x4 0.6669333484) x2) (or (>= (- y2 0.8166652303) y4) (or (>= (- y4 0.6276252804) y2))))) 
(and (or (<= (+ x2 0.1851341769) x5) (or (<= (+ x5 0.0903185514) x2) (or (>= (- y2 0.8166652303) y5) (or (>= (- y5 0.508830504) y2))))) 
(and (or (<= (+ x2 0.1851341769) x6) (or (<= (+ x6 0.0255689709) x2) (or (>= (- y2 0.8166652303) y6) (or (>= (- y6 0.3572519162) y2))))) 
(and (or (<= (+ x2 0.1851341769) x7) (or (<= (+ x7 0.2598307129) x2) (or (>= (- y2 0.8166652303) y7) (or (>= (- y7 0.3424717975) y2))))) 
(and (or (<= (+ x2 0.1851341769) x8) (or (<= (+ x8 0.35150278) x2) (or (>= (- y2 0.8166652303) y8) (or (>= (- y8 0.298630459) y2))))) 
(and (or (<= (+ x2 0.1851341769) x9) (or (<= (+ x9 0.1614205582) x2) (or (>= (- y2 0.8166652303) y9) (or (>= (- y9 0.2251849441) y2))))) 
(and (or (<= (+ x2 0.1851341769) x10) (or (<= (+ x10 0.9346307646) x2) (or (>= (- y2 0.8166652303) y10) (or (>= (- y10 0.17574257) y2))))) 
(and (or (<= (+ x2 0.1851341769) x11) (or (<= (+ x11 0.9286627864) x2) (or (>= (- y2 0.8166652303) y11) (or (>= (- y11 0.0821876329) y2))))) 
(and (or (<= (+ x3 0.0429529973) x4) (or (<= (+ x4 0.6669333484) x3) (or (>= (- y3 0.8035968909) y4) (or (>= (- y4 0.6276252804) y3))))) 
(and (or (<= (+ x3 0.0429529973) x5) (or (<= (+ x5 0.0903185514) x3) (or (>= (- y3 0.8035968909) y5) (or (>= (- y5 0.508830504) y3))))) 
(and (or (<= (+ x3 0.0429529973) x6) (or (<= (+ x6 0.0255689709) x3) (or (>= (- y3 0.8035968909) y6) (or (>= (- y6 0.3572519162) y3))))) 
(and (or (<= (+ x3 0.0429529973) x7) (or (<= (+ x7 0.2598307129) x3) (or (>= (- y3 0.8035968909) y7) (or (>= (- y7 0.3424717975) y3))))) 
(and (or (<= (+ x3 0.0429529973) x8) (or (<= (+ x8 0.35150278) x3) (or (>= (- y3 0.8035968909) y8) (or (>= (- y8 0.298630459) y3))))) 
(and (or (<= (+ x3 0.0429529973) x9) (or (<= (+ x9 0.1614205582) x3) (or (>= (- y3 0.8035968909) y9) (or (>= (- y9 0.2251849441) y3))))) 
(and (or (<= (+ x3 0.0429529973) x10) (or (<= (+ x10 0.9346307646) x3) (or (>= (- y3 0.8035968909) y10) (or (>= (- y10 0.17574257) y3))))) 
(and (or (<= (+ x3 0.0429529973) x11) (or (<= (+ x11 0.9286627864) x3) (or (>= (- y3 0.8035968909) y11) (or (>= (- y11 0.0821876329) y3))))) 
(and (or (<= (+ x4 0.6669333484) x5) (or (<= (+ x5 0.0903185514) x4) (or (>= (- y4 0.6276252804) y5) (or (>= (- y5 0.508830504) y4))))) 
(and (or (<= (+ x4 0.6669333484) x6) (or (<= (+ x6 0.0255689709) x4) (or (>= (- y4 0.6276252804) y6) (or (>= (- y6 0.3572519162) y4))))) 
(and (or (<= (+ x4 0.6669333484) x7) (or (<= (+ x7 0.2598307129) x4) (or (>= (- y4 0.6276252804) y7) (or (>= (- y7 0.3424717975) y4))))) 
(and (or (<= (+ x4 0.6669333484) x8) (or (<= (+ x8 0.35150278) x4) (or (>= (- y4 0.6276252804) y8) (or (>= (- y8 0.298630459) y4))))) 
(and (or (<= (+ x4 0.6669333484) x9) (or (<= (+ x9 0.1614205582) x4) (or (>= (- y4 0.6276252804) y9) (or (>= (- y9 0.2251849441) y4))))) 
(and (or (<= (+ x4 0.6669333484) x10) (or (<= (+ x10 0.9346307646) x4) (or (>= (- y4 0.6276252804) y10) (or (>= (- y10 0.17574257) y4))))) 
(and (or (<= (+ x4 0.6669333484) x11) (or (<= (+ x11 0.9286627864) x4) (or (>= (- y4 0.6276252804) y11) (or (>= (- y11 0.0821876329) y4))))) 
(and (or (<= (+ x5 0.0903185514) x6) (or (<= (+ x6 0.0255689709) x5) (or (>= (- y5 0.508830504) y6) (or (>= (- y6 0.3572519162) y5))))) 
(and (or (<= (+ x5 0.0903185514) x7) (or (<= (+ x7 0.2598307129) x5) (or (>= (- y5 0.508830504) y7) (or (>= (- y7 0.3424717975) y5))))) 
(and (or (<= (+ x5 0.0903185514) x8) (or (<= (+ x8 0.35150278) x5) (or (>= (- y5 0.508830504) y8) (or (>= (- y8 0.298630459) y5))))) 
(and (or (<= (+ x5 0.0903185514) x9) (or (<= (+ x9 0.1614205582) x5) (or (>= (- y5 0.508830504) y9) (or (>= (- y9 0.2251849441) y5))))) 
(and (or (<= (+ x5 0.0903185514) x10) (or (<= (+ x10 0.9346307646) x5) (or (>= (- y5 0.508830504) y10) (or (>= (- y10 0.17574257) y5))))) 
(and (or (<= (+ x5 0.0903185514) x11) (or (<= (+ x11 0.9286627864) x5) (or (>= (- y5 0.508830504) y11) (or (>= (- y11 0.0821876329) y5))))) 
(and (or (<= (+ x6 0.0255689709) x7) (or (<= (+ x7 0.2598307129) x6) (or (>= (- y6 0.3572519162) y7) (or (>= (- y7 0.3424717975) y6))))) 
(and (or (<= (+ x6 0.0255689709) x8) (or (<= (+ x8 0.35150278) x6) (or (>= (- y6 0.3572519162) y8) (or (>= (- y8 0.298630459) y6))))) 
(and (or (<= (+ x6 0.0255689709) x9) (or (<= (+ x9 0.1614205582) x6) (or (>= (- y6 0.3572519162) y9) (or (>= (- y9 0.2251849441) y6))))) 
(and (or (<= (+ x6 0.0255689709) x10) (or (<= (+ x10 0.9346307646) x6) (or (>= (- y6 0.3572519162) y10) (or (>= (- y10 0.17574257) y6))))) 
(and (or (<= (+ x6 0.0255689709) x11) (or (<= (+ x11 0.9286627864) x6) (or (>= (- y6 0.3572519162) y11) (or (>= (- y11 0.0821876329) y6))))) 
(and (or (<= (+ x7 0.2598307129) x8) (or (<= (+ x8 0.35150278) x7) (or (>= (- y7 0.3424717975) y8) (or (>= (- y8 0.298630459) y7))))) 
(and (or (<= (+ x7 0.2598307129) x9) (or (<= (+ x9 0.1614205582) x7) (or (>= (- y7 0.3424717975) y9) (or (>= (- y9 0.2251849441) y7))))) 
(and (or (<= (+ x7 0.2598307129) x10) (or (<= (+ x10 0.9346307646) x7) (or (>= (- y7 0.3424717975) y10) (or (>= (- y10 0.17574257) y7))))) 
(and (or (<= (+ x7 0.2598307129) x11) (or (<= (+ x11 0.9286627864) x7) (or (>= (- y7 0.3424717975) y11) (or (>= (- y11 0.0821876329) y7))))) 
(and (or (<= (+ x8 0.35150278) x9) (or (<= (+ x9 0.1614205582) x8) (or (>= (- y8 0.298630459) y9) (or (>= (- y9 0.2251849441) y8))))) 
(and (or (<= (+ x8 0.35150278) x10) (or (<= (+ x10 0.9346307646) x8) (or (>= (- y8 0.298630459) y10) (or (>= (- y10 0.17574257) y8))))) 
(and (or (<= (+ x8 0.35150278) x11) (or (<= (+ x11 0.9286627864) x8) (or (>= (- y8 0.298630459) y11) (or (>= (- y11 0.0821876329) y8))))) 
(and (or (<= (+ x9 0.1614205582) x10) (or (<= (+ x10 0.9346307646) x9) (or (>= (- y9 0.2251849441) y10) (or (>= (- y10 0.17574257) y9))))) 
(and (or (<= (+ x9 0.1614205582) x11) (or (<= (+ x11 0.9286627864) x9) (or (>= (- y9 0.2251849441) y11) (or (>= (- y11 0.0821876329) y9))))) 
(and (or (<= (+ x10 0.9346307646) x11) (or (<= (+ x11 0.9286627864) x10) (or (>= (- y10 0.17574257) y11) (or (>= (- y11 0.0821876329) y10))))) )))))))))))))))))))))))))))))))))))))))))))))))))))))))))))))))))))))))))))))))))))))))))))))))))))))))))))))))))))))))))))))))))))))))))))))))))))))))))))
(minimize c)
(check-sat)
(get-objectives)
(exit)
